<instance format="XCSP3" type="QCSP+"> 
  <variables> 
    <var id="w"> 1..4 </var>
    <var id="x"> 1..4 </var>
    <var id="y"> 1..4 </var>
    <var id="z"> 1..4 </var>
  </variables> 
  <constraints> 
    <intension id="r1a"> lt(add(w,x),8) </intension> 
    <intension id="r1b"> gt(sub(w,x),2) </intension> 
    <intension id="r2a"> ne(w,y) </intension> 
    <intension id="r2b"> ne(x,y) </intension> 
    <intension id="r3"> gt(sub(w,y),z) </intension>  
    <intension id="goal"> eq(add(w,x),add(y,z)) </intension> 
  </constraints> 
  <quantification>
    <exists>
      <vars> w x </vars> 
      <ctrs> r1a r1b </ctrs> 
    </exists>
    <forall> 
      <vars> y </vars>
      <ctrs> r2a r2b </ctrs> 
    </forall>
    <exists>
      <vars> z </vars> 
      <ctrs> r3 </ctrs>
    </exists> 
  </quantification>
</instance> 
